[[7, 35, 8, 54, 19, 53, 14, 59, 66, 11, 65, 38, 10, 31, 58, 72], [12, 40, 39, 9, 25, 55, 18, 50, 32, 44, 3, 24, 49, 16], [63, 23, 56, 43, 41, 42, 64, 22, 62, 73, 33, 51, 6], [68, 2, 30, 48, 74, 28, 61, 21, 47, 69, 36, 71, 60], [70, 20, 37, 5, 15, 57, 29, 45, 13, 27, 52, 34, 46, 67, 4, 75, 76, 17, 26]]